NAME = AISearchfile180,
TOURSIZE = 180,
LENGTH = 1960,
87,18,1,141,110,153,102,96,152,115,100,49,177,76,148,108,10,58,57,43,103,155,82,9,37,33,138,99,83,126,180,139,55,60,86,20,162,68,32,156,122,27,70,61,51,161,158,29,85,91,171,114,7,81,47,146,39,174,116,3,4,94,16,44,34,23,19,66,95,124,36,175,15,150,168,113,132,142,50,62,71,128,119,163,5,136,125,63,109,6,165,17,67,178,147,167,78,38,84,121,107,97,21,123,41,179,56,13,42,64,134,129,80,137,72,77,130,52,120,144,65,118,133,104,117,101,73,93,88,176,172,45,25,131,24,106,48,54,169,40,173,164,135,74,22,90,79,92,69,26,75,112,160,31,159,12,11,149,145,46,59,35,98,151,30,105,89,143,53,8,140,166,157,127,170,28,154,14,111,2